<instance format="XCSP3" type="CSP">
  <variables>
    <var id="x0"> 9 10 13 </var>
    <var id="x1"> 0 5 13 14 </var>
    <var id="x2"> 0 5 9 10 </var>
    <var id="x3"> 0 8 9 14 </var>
    <var id="x4"> 8 9 13 14 </var>
    <var id="x5"> 4 5 9 </var>
    <var id="x6"> 0 8 13 14 </var>
    <var id="x7"> 5 10 13 </var>
    <var id="x8"> 8 12 16 17 </var>
    <var id="x9"> 1 14 17 </var>
    <var id="x10"> 8 14 </var>
    <var id="x11"> 14 16 17 </var>
    <var id="x12"> 6 12 </var>
    <var id="x13"> 6 17 </var>
    <var id="x14"> 1 8 14 16 </var>
    <var id="x15"> 3 9 16 </var>
    <var id="x16"> 2 9 16 </var>
    <var id="x17"> 0 4 16 </var>
    <var id="x18"> 1 3 11 </var>
    <var id="x19"> 1 9 16 </var>
    <var id="x20"> 0 1 11 16 </var>
    <var id="x21"> 0 2 4 9 </var>
    <var id="x22"> 0 3 11 </var>
    <var id="x23"> 3 5 14 15 </var>
    <var id="x24"> 3 5 14..16 </var>
    <var id="x25"> 5 6 9 15 </var>
    <var id="x26"> 9 14 16 </var>
    <var id="x27"> 5 9 16 </var>
    <var id="x28"> 2 6 9 15 </var>
    <var id="x29"> 14 16 </var>
    <var id="x30"> 2 5 15 16 </var>
    <var id="x31"> 0 7 8 14 </var>
    <var id="x32"> 0 14 15 17 </var>
    <var id="x33"> 0 8 9 11 14 15 </var>
    <var id="x34"> 9 11 17 </var>
    <var id="x35"> 0 9 15 17 </var>
    <var id="x36"> 15 17 </var>
    <var id="x37"> 7 8 </var>
    <var id="x38"> 0 9 14 17 </var>
    <var as="x8" id="x39"/>
    <var id="x40"> 13 15 16 </var>
    <var id="x41"> 8 12 14 16 </var>
    <var id="x42"> 8 13..15 </var>
    <var id="x43"> 5 12 15 </var>
    <var id="x44"> 14..16 </var>
    <var id="x45"> 13 15 17 </var>
    <var id="x46"> 8 13 14 </var>
    <var id="x47"> 3 7 12 16 </var>
    <var id="x48"> 0 7 12 14 16 </var>
    <var id="x49"> 1 3 14 15 </var>
    <var id="x50"> 0 3 14..16 </var>
    <var id="x51"> 0 7 12 15 </var>
    <var id="x52"> 0 1 3 14..16 </var>
    <var id="x53"> 0 15 </var>
    <var id="x54"> 7 12 16 </var>
    <var id="x55"> 7..10 16 17 </var>
    <var id="x56"> 7 9 10 13 16 </var>
    <var id="x57"> 10 14 17 </var>
    <var id="x58"> 9 16 17 </var>
    <var id="x59"> 9 10 13 17 </var>
    <var id="x60"> 10 13 16 17 </var>
    <var id="x61"> 7 8 13 16 </var>
    <var id="x62"> 9 14 17 </var>
    <var id="x63"> 3 9 10 16 </var>
    <var id="x64"> 0 3 9 11 13 15 </var>
    <var id="x65"> 0 3 13 15 16 </var>
    <var id="x66"> 9 10 13 16 </var>
    <var id="x67"> 9 11 16 </var>
    <var id="x68"> 0 9 10 13 15 </var>
    <var id="x69"> 13 16 </var>
    <var id="x70"> 0 9 </var>
    <var id="x71"> 0 6 8 </var>
    <var id="x72"> 5 10 17 </var>
    <var id="x73"> 0 5 6 9 10 </var>
    <var id="x74"> 0 8 9 </var>
    <var id="x75"> 5 9 17 </var>
    <var id="x76"> 5 10 17 </var>
    <var id="x77"> 0 6 8 </var>
    <var id="x78"> 4 6 8 14 16 </var>
    <var id="x79"> 14 16 </var>
    <var id="x80"> 1 4 14 16 </var>
    <var id="x81"> 4 8 9 14 16 </var>
    <var id="x82"> 8 9 14 </var>
    <var id="x83"> 4 6 9 14 </var>
    <var id="x84"> 6 8 14 </var>
    <var id="x85"> 7 9 13 15 </var>
    <var id="x86"> 0 4 7 14 </var>
    <var id="x87"> 11 14 15 </var>
    <var id="x88"> 0 7 9 15 </var>
    <var id="x89"> 0 4 11 14 15 </var>
    <var id="x90"> 4 9 13 14 </var>
    <var id="x91"> 0 7 11 13 14 </var>
    <var as="x91" id="x92"/>
    <var id="x93"> 7 10 16 </var>
    <var id="x94"> 0 14 </var>
    <var id="x95"> 0 1 4 14 16 </var>
    <var id="x96"> 4 10 14 16 </var>
    <var id="x97"> 0 2 14 </var>
    <var id="x98"> 0 1 7 14 16 </var>
    <var id="x99"> 1 2 10 16 </var>
    <var id="x100"> 4 7 16 </var>
    <var id="x101"> 2 7 13 15 </var>
    <var id="x102"> 3 5 15 </var>
    <var id="x103"> 0 3 15 </var>
    <var id="x104"> 13 </var>
    <var id="x105"> 0 2 3 15 </var>
    <var id="x106"> 12 13 </var>
    <var id="x107"> 5 7 12 13 </var>
    <var id="x108"> 0 2 5 </var>
    <var id="x109"> 8 10 17 </var>
    <var id="x110"> 6 10 13 15 </var>
    <var id="x111"> 0 8 13 15 </var>
    <var id="x112"> 0 5 6 10 15 </var>
    <var id="x113"> 8 10 13 17 </var>
    <var id="x114"> 0 8 15 </var>
    <var id="x115"> 0 8 13 </var>
    <var id="x116"> 5 8 13 </var>
    <var id="x117"> 9 13 16 </var>
    <var id="x118"> 4 12 16 </var>
    <var id="x119"> 3 9 11 13 </var>
    <var id="x120"> 3 13 16 17 </var>
    <var id="x121"> 3 4 11 16 </var>
    <var id="x122"> 4 9 13 16 17 </var>
    <var id="x123"> 9 12 13 16 </var>
    <var id="x124"> 3 11 13 </var>
    <var id="x125"> 3 11 13 </var>
    <var id="x126"> 13 16 17 </var>
    <var id="x127"> 1 13 16 </var>
    <var id="x128"> 1 5 11 16 17 </var>
    <var id="x129"> 2 13 17 </var>
    <var id="x130"> 1 2 5 13 16 17 </var>
    <var id="x131"> 2 5 17 </var>
    <var id="x132"> 3 11 13 </var>
    <var id="x133"> 8 11 13..15 </var>
    <var id="x134"> 11 14 15 </var>
    <var id="x135"> 8 11 14 15 </var>
    <var id="x136"> 8 13 14 </var>
    <var id="x137"> 7 8 11 13 14 </var>
    <var id="x138"> 10 13 15 </var>
    <var id="x139"> 6 14 </var>
    <var id="x140"> 6..8 11 13 14 </var>
  </variables>
  <constraints>
    <group>
      <allDifferent> %... </allDifferent>
      <args> x0 x1 x2 x3 x4 x5 x6 x7 </args>
      <args> x8 x9 x10 x11 x12 x13 x14 </args>
      <args> x15 x16 x17 x18 x19 x20 x21 x22 </args>
      <args> x23 x24 x25 x26 x27 x28 x29 x30 </args>
      <args> x31 x32 x33 x34 x35 x36 x37 x38 </args>
      <args> x39 x40 x41 x42 x43 x44 x45 x46 </args>
      <args> x47 x48 x49 x50 x51 x52 x53 x54 </args>
      <args> x55 x56 x57 x58 x59 x60 x61 x62 </args>
      <args> x63 x64 x65 x66 x67 x68 x69 x70 </args>
      <args> x71 x72 x73 x74 x75 x76 x77 </args>
      <args> x78 x79 x80 x81 x82 x83 x84 </args>
      <args> x85 x86 x87 x88 x89 x90 x91 x92 </args>
      <args> x93 x94 x95 x96 x97 x98 x99 x100 </args>
      <args> x101 x102 x103 x104 x105 x106 x107 x108 </args>
      <args> x109 x110 x111 x112 x113 x114 x115 x116 </args>
      <args> x117 x118 x119 x120 x121 x122 x123 x124 </args>
      <args> x125 x126 x127 x128 x129 x130 x131 x132 </args>
      <args> x133 x134 x135 x136 x137 x138 x139 x140 </args>
      <args> x8 x15 x39 x47 x55 x63 x93 x109 </args>
      <args> x0 x16 x40 x56 x85 x101 x110 x117 </args>
      <args> x17 x31 x41 x48 x71 x78 x86 x118 </args>
      <args> x9 x18 x23 x49 x57 x72 x87 x102 </args>
      <args> x10 x42 x64 x94 x111 x119 x125 x133 </args>
      <args> x1 x11 x24 x32 x50 x65 x79 x120 </args>
      <args> x2 x12 x25 x43 x51 x73 x88 x112 </args>
      <args> x44 x52 x80 x89 x95 x103 x121 x134 </args>
      <args> x66 x81 x90 x96 x104 x113 x122 x126 </args>
      <args> x3 x33 x74 x82 x97 x105 x114 x135 </args>
      <args> x4 x19 x26 x106 x123 x127 x136 </args>
      <args> x5 x27 x34 x58 x67 x75 x128 </args>
      <args> x13 x28 x35 x45 x53 x59 x68 x129 </args>
      <args> x6 x14 x20 x29 x91 x98 x115 x137 </args>
      <args> x7 x30 x36 x60 x76 x99 x130 x138 </args>
      <args> x37 x54 x61 x69 x100 x107 x116 </args>
      <args> x21 x38 x62 x70 x83 x108 x131 x139 </args>
      <args> x22 x46 x77 x84 x92 x124 x132 x140 </args>
    </group>
  </constraints>
</instance>

